p edge 180 179
e 1 117
e 1 68
e 2 73
e 2 41
e 3 142
e 3 175
e 4 164
e 5 29
e 6 7
e 7 48
e 7 144
e 8 38
e 8 24
e 9 35
e 9 59
e 9 81
e 10 71
e 11 63
e 12 100
e 12 18
e 12 170
e 13 24
e 13 29
e 14 58
e 15 84
e 15 59
e 16 36
e 17 157
e 17 176
e 17 99
e 18 50
e 19 135
e 19 156
e 20 27
e 21 97
e 21 75
e 21 60
e 22 174
e 23 33
e 23 152
e 24 27
e 24 127
e 25 87
e 25 92
e 26 60
e 26 98
e 27 85
e 28 179
e 28 161
e 29 88
e 29 76
e 30 178
e 30 175
e 31 140
e 32 105
e 32 97
e 34 109
e 36 163
e 36 57
e 36 131
e 37 118
e 37 68
e 39 56
e 40 82
e 40 170
e 40 51
e 40 96
e 41 172
e 41 112
e 41 117
e 42 94
e 42 63
e 42 96
e 42 139
e 43 60
e 44 141
e 44 137
e 45 130
e 46 129
e 46 130
e 47 155
e 49 51
e 50 115
e 51 156
e 52 167
e 53 180
e 54 91
e 54 172
e 55 158
e 55 81
e 55 168
e 56 83
e 56 87
e 57 62
e 57 143
e 57 93
e 58 140
e 59 116
e 61 108
e 63 137
e 64 166
e 64 144
e 65 177
e 65 142
e 66 115
e 67 151
e 68 92
e 68 167
e 68 129
e 69 126
e 69 155
e 69 138
e 69 165
e 70 147
e 70 164
e 71 72
e 72 80
e 72 122
e 72 117
e 74 179
e 75 121
e 76 107
e 76 112
e 77 161
e 77 164
e 78 109
e 79 88
e 81 146
e 84 152
e 86 98
e 88 165
e 89 90
e 89 155
e 91 95
e 93 113
e 93 103
e 94 124
e 95 125
e 98 119
e 98 99
e 98 153
e 101 118
e 102 128
e 102 165
e 103 154
e 103 150
e 104 138
e 106 142
e 108 161
e 109 174
e 109 153
e 110 169
e 110 150
e 111 159
e 114 148
e 118 162
e 119 145
e 120 153
e 120 136
e 123 163
e 127 131
e 128 160
e 130 164
e 130 156
e 132 180
e 133 175
e 134 166
e 136 139
e 136 180
e 138 144
e 138 175
e 140 163
e 143 149
e 146 159
e 148 177
e 150 168
e 151 176
e 161 171
e 173 175
